(set-logic QF_SLIA)
(declare-fun var0 () String)
(assert (not (str.in_re var0 (re.++ ((_ re.loop 16 301) (re.++ (re.union (str.to_re "rX") (re.union (str.to_re "ry") (re.union (str.to_re "W") (str.to_re "<")))) (re.++ (re.union (str.to_re "&") (re.union (str.to_re "G") (re.union (str.to_re "3I") (str.to_re "P$")))) (re.++ (re.union (str.to_re "8eQ") (re.union (str.to_re "J*]") (re.union (str.to_re "n") (str.to_re "}")))) (re.union (str.to_re "}") (re.union (str.to_re "J") (re.union (str.to_re "t") (str.to_re "Zi")))))))) (re.++ ((_ re.loop 10 692) (re.++ (re.union (str.to_re "|j#") (re.union (str.to_re "_?e") (re.union (str.to_re "0z4") (str.to_re "J")))) (re.++ (re.union (str.to_re "35") (re.union (str.to_re ";,+") (re.union (str.to_re "nT") (str.to_re "/*)")))) (re.++ (re.union (str.to_re "wn") (re.union (str.to_re "{N") (re.union (str.to_re "~i,") (str.to_re "R,i")))) (re.union (str.to_re "6") (re.union (str.to_re "N") (re.union (str.to_re "}") (str.to_re "n")))))))) (re.++ ((_ re.loop 16 768) (re.++ (re.union (str.to_re ")!c") (re.union (str.to_re "xU&") (re.union (str.to_re "Ql}") (str.to_re ")")))) (re.++ (re.union (str.to_re "bh") (re.union (str.to_re "E(q") (re.union (str.to_re "o2\\") (str.to_re "M5")))) (re.++ (re.union (str.to_re "%") (re.union (str.to_re ":}") (re.union (str.to_re "C") (str.to_re "&A")))) (re.union (str.to_re ")sv") (re.union (str.to_re "Y}") (re.union (str.to_re "lfl") (str.to_re "f")))))))) ((_ re.loop 0 506) (re.++ (re.union (str.to_re "Z") (re.union (str.to_re "t") (re.union (str.to_re "aL") (str.to_re "(")))) (re.++ (re.union (str.to_re "v^D") (re.union (str.to_re "wQ") (re.union (str.to_re "W") (str.to_re "10v")))) (re.++ (re.union (str.to_re "gW") (re.union (str.to_re ">1") (re.union (str.to_re "Q") (str.to_re "R")))) (re.union (str.to_re "4") (re.union (str.to_re "_<") (re.union (str.to_re "fv^") (str.to_re "{lQ"))))))))))))))
(assert (not (str.in_re var0 (re.++ ((_ re.loop 6 276) (re.++ (re.union (str.to_re "ZH8") (re.union (str.to_re "E7j") (re.union (str.to_re "L") (str.to_re "#G")))) (re.++ (re.union (str.to_re "Hzz") (re.union (str.to_re "mjh") (re.union (str.to_re "Hd^") (str.to_re "#BZ")))) (re.++ (re.union (str.to_re "a3") (re.union (str.to_re "e") (re.union (str.to_re "r2") (str.to_re "f6")))) (re.union (str.to_re "P") (re.union (str.to_re "f}") (re.union (str.to_re "+~F") (str.to_re "r")))))))) (re.++ ((_ re.loop 1 303) (re.++ (re.union (str.to_re "#") (re.union (str.to_re "ysc") (re.union (str.to_re "%i7") (str.to_re "T%")))) (re.++ (re.union (str.to_re "(I") (re.union (str.to_re "+s") (re.union (str.to_re "B") (str.to_re "A")))) (re.++ (re.union (str.to_re "D[)") (re.union (str.to_re "GH") (re.union (str.to_re "Ah") (str.to_re "_dl")))) (re.union (str.to_re "{W6") (re.union (str.to_re "[") (re.union (str.to_re "*2") (str.to_re "9`")))))))) (re.++ ((_ re.loop 2 920) (re.++ (re.union (str.to_re "trm") (re.union (str.to_re "0") (re.union (str.to_re "Xq,") (str.to_re "/!Q")))) (re.++ (re.union (str.to_re "9") (re.union (str.to_re "4x") (re.union (str.to_re "C)") (str.to_re "%&")))) (re.++ (re.union (str.to_re "'") (re.union (str.to_re "lE&") (re.union (str.to_re "kf") (str.to_re "=")))) (re.union (str.to_re "b") (re.union (str.to_re ")") (re.union (str.to_re "l`") (str.to_re "}")))))))) ((_ re.loop 5 748) (re.++ (re.union (str.to_re "M0") (re.union (str.to_re "|") (re.union (str.to_re "2w") (str.to_re "t3")))) (re.++ (re.union (str.to_re "et}") (re.union (str.to_re "{e") (re.union (str.to_re ";yy") (str.to_re "q.7")))) (re.++ (re.union (str.to_re "9") (re.union (str.to_re "R") (re.union (str.to_re "k\u0022") (str.to_re "qq")))) (re.union (str.to_re "7") (re.union (str.to_re "eL") (re.union (str.to_re "`i,") (str.to_re "%k"))))))))))))))
(assert (not (str.in_re var0 (re.++ (re.* re.allchar) (re.++ (re.union (str.to_re "<") (re.union (str.to_re ">") (re.union (str.to_re "'") (re.union (str.to_re "\u0022") (str.to_re "&"))))) (re.* re.allchar))))))
(assert (<= 50 (str.len var0)))
(check-sat)
(get-model)
